job_count = 14 ;
duration = [|14, 11, 6|16, 2, 4|29, 3, 7|18, 23, 7|3, 23, 18|3, 5, 5|28, 21, 4|11, 4, 10|27, 10, 18|27, 4, 16|20, 2, 18|2, 22, 12|25, 5, 4|18, 18, 6|] ;
machine_count = 3 ;
cost = [|23, 42, 50|16, 21, 47|30, 27, 53|31, 47, 54|28, 38, 40|36, 39, 33|28, 40, 40|30, 22, 48|25, 32, 52|17, 33, 52|26, 43, 35|28, 30, 54|25, 45, 48|32, 20, 52|] ;
deadline = [59, 30, 44, 75, 50, 46, 66, 63, 79, 48, 47, 43, 33, 49] ;
release = [43, 1, 5, 46, 10, 18, 44, 40, 36, 7, 18, 24, 3, 10] ;
resource = [|2, 2, 2|3, 3, 3|4, 4, 4|8, 8, 8|5, 5, 5|6, 6, 6|5, 5, 5|4, 4, 4|8, 8, 8|2, 2, 2|9, 9, 9|1, 1, 1|5, 5, 5|5, 5, 5|] ;
capacities = [10, 10, 10] ;
